VER
4

OBJSENSE
MIN

VAR
5 1
F 5

CON
30 4
SVECQRE 21
SVECQE 5
SVECPSD 3
L= 1

OBJACOORD
2
0 1.0
1 1.0

ACOORD
18
0 0 1.0
1 2 1.0
4 3 1.0
6 4 1.0
11 2 1.0
13 2 1.0
14 3 1.0
16 4 1.0
18 3 1.0
20 4 1.0
21 1 1.0
23 2 1.0
23 4 1.0
26 2 1.0
27 3 1.0
28 4 1.0
29 2 1.0
29 4 1.0

BCOORD
2
22 -1.0
29 1.0
